p cnf 67 66
-1 56 -57 0 
-2 4 57 0 
-3 12 58 0 
-4 2 -5 31 43 50 57 0 
-6 35 55 57 0 
-7 57 0 
-8 57 0 
-9 57 0 
-10 51 57 0 
-11 57 0 
-12 3 56 -57 0 
-13 57 0 
-14 17 57 0 
-15 46 57 0 
-16 57 0 
-17 14 57 0 
-18 38 57 0 
-19 57 0 
-20 -21 22 48 -9 57 0 
-20 -18 38 -22 21 48 57 0 
-6 35 55 57 0 
-23 57 0 
-2 4 -24 57 0 
-25 -26 33 34 57 0 
-27 49 52 57 0 
-28 57 0 
-29 57 0 
-30 57 0 
-31 5 43 50 57 0 
-32 -33 26 34 57 0 
-32 -34 26 33 57 0 
-22 21 48 57 0 
-35 6 55 57 0 
-36 57 0 
-37 57 0 
-32 -38 18 57 0 
-32 -26 33 34 57 0 
-39 -8 59 -57 0 
-39 -40 60 -57 0 
-39 -41 61 -57 0 
-39 -40 62 -57 0 
-20 -21 22 48 -42 57 0 
-5 31 43 50 57 0 
-43 5 31 50 57 0 
-44 63 -57 0 
-20 -21 22 48 -40 57 0 
-45 -46 15 64 -57 -18 -38 0 
-45 65 -57 0 
-47 60 -57 0 
-45 -48 21 22 -49 27 52 64 -57 -18 -38 0 
-47 64 -57 -18 -38 0 
-45 -48 21 22 -46 15 60 -57 0 
-45 -48 21 22 -49 27 52 62 -57 0 
-45 60 -57 0 
-50 5 31 43 57 0 
-20 -38 18 -51 10 57 0 
-52 27 49 66 -57 0 
-53 67 -45 -57 0 
-54 -19 57 0 
-15 46 60 -57 0 
-17 14 60 -57 0 
-17 14 62 -57 0 
-11 62 -57 0 
-11 60 -57 0 
-15 46 62 -57 0 
-55 6 35 57 0 
